num_features = 45;
num_usage_limits = 6;
num_plans = 4;
num_addons = 0;

features = ["secureStorage","industryAppsIntegration","versionHistory","unlimitedExternalCollaborators","boxApi","granularSharedPermissions","accessControls","microsoft365Integration","googleWorkspaceIntegration","slackIntegration","desktopAccess","mobileAccess","sslEncryption","atRestEncryption","twoFactorAuthentication","standardBusinessSupport","userManagement","dataLossProtection","advancedSecurityReporting","advancedUserReporting","singleSignOn","activeDirectoryIntegration","customBranding","mobileSecurityControls","advancedAdmin","advancedControls","fullContentVisibility","fullContentManagement","userActivityTracking","adminRoleDelegation","metadata","customTemplates","customTermsOfService","pciDssCompliance","boxGovernance","boxZones","boxKeySafe","boxShield","relayLite","hipaaCompliance","hitechCompliance","fedrampCompliance","deviceTrust","passwordPolicyEnforcement","documentWatermark"];
usage_limits = ["uploadSizeLimit","industryAppsIntegrationLimit","versionHistoryThreshold","minUsers","apiCallsLimit","includedDocumentsFor3rdPartyAndCustomApps"];
plans = ["BUSINESS","BUSINESS_PLUS","ENTERPRISE","ENTERPRISE_PLUS"];
addons = [];

plans_prices = [15,25,35,350];
addons_prices = [];

linked_features = array2d(USAGE_LIMITS, FEATURES, [
    % uploadSizeLimit
    1,0,0,0,0,0,0,0,0,0,0,0,0,0,0,0,0,0,0,0,0,0,0,0,0,0,0,0,0,0,0,0,0,0,0,0,0,0,0,0,0,0,0,0,0,
    % industryAppsIntegrationLimit
    0,1,0,0,0,0,0,0,0,0,0,0,0,0,0,0,0,0,0,0,0,0,0,0,0,0,0,0,0,0,0,0,0,0,0,0,0,0,0,0,0,0,0,0,0,
    % versionHistoryThreshold
    0,0,1,0,0,0,0,0,0,0,0,0,0,0,0,0,0,0,0,0,0,0,0,0,0,0,0,0,0,0,0,0,0,0,0,0,0,0,0,0,0,0,0,0,0,
    % minUsers
    0,0,0,0,0,0,0,0,0,0,0,0,0,0,0,0,0,0,0,0,0,0,0,0,0,0,0,0,0,0,0,0,0,0,0,0,0,0,0,0,0,0,0,0,0,
    % apiCallsLimit
    0,0,0,0,1,0,0,0,0,0,0,0,0,0,0,0,0,0,0,0,0,0,0,0,0,0,0,0,0,0,0,0,0,0,0,0,0,0,0,0,0,0,0,0,0,
    % includedDocumentsFor3rdPartyAndCustomApps
    0,1,0,0,0,0,0,1,1,1,0,0,0,0,0,0,0,0,0,0,0,1,0,0,0,0,0,0,0,0,0,0,0,0,0,0,0,0,1,0,0,0,0,0,0
]);

plans_features = array2d(PLANS, FEATURES, [
    % BUSINESS
    1,1,1,0,1,1,1,1,1,0,1,1,1,1,1,1,1,1,1,1,1,1,1,1,0,0,0,0,0,0,0,0,0,0,0,0,0,0,0,0,0,0,0,0,0,
    % BUSINESS_PLUS
    1,1,1,1,1,1,1,1,1,0,1,1,1,1,1,1,1,1,1,1,1,1,1,1,1,1,1,1,1,1,1,1,1,1,1,1,1,0,0,0,0,0,0,0,0,
    % ENTERPRISE
    1,1,1,1,1,1,1,1,1,0,1,1,1,1,1,1,1,1,1,1,1,1,1,1,1,1,1,1,1,1,1,1,1,1,1,1,1,1,0,1,1,1,1,1,1,
    % ENTERPRISE_PLUS
    1,1,1,1,1,1,1,1,1,0,1,1,1,1,1,1,1,1,1,1,1,1,1,1,1,1,1,1,1,1,1,1,1,1,1,1,1,1,0,1,1,1,1,1,1
]);
plans_usage_limits = array2d(PLANS, USAGE_LIMITS, [
    % BUSINESS
    5,1,50,3,50000,100,
    % BUSINESS_PLUS
    15,10,50,3,50000,100,
    % ENTERPRISE
    50,Infinity,100,3,100000,250,
    % ENTERPRISE_PLUS
    150,Infinity,Infinity,3,100000,1000
]);

addons_features = array2d(ADDONS, FEATURES, [
]);
addons_usage_limits = array2d(ADDONS, USAGE_LIMITS, [
]);
addons_usage_limits_extensions = array2d(ADDONS, USAGE_LIMITS, [
]);
addons_available_for = array2d(ADDONS, PLANS, [
]);
addons_depends_on = array2d(ADDONS, ADDONS, [
]);
